BAYES
5
2 2 2 2 2 
5
1 0   # Burglary
1 1   # Earthquake
3 0 1 2   # Alarm
2 2 3   # JohnCalls
2 2 4   # MaryCalls


2
  0.01 0.99 

2
  0.02 0.98 

8
  0.95 0.05 
  0.29 0.71 
  0.94 0.06 
  0.001 0.999 

4
  0.9 0.1 
  0.05 0.95 

4
  0.7 0.3 
  0.01 0.99 


